max: -4.0v1 + 1.0v2 + 1.0v3  - 2.0v5  - 2.0v6  - 3.0v7 + 7.0v8  - 2.0v9 + 1.0v10  - 1.0v11  - 1.0v12  - 1.0v13  - 3.0v16  - 1.0v17  - 3.0v18  - 2.0v19 + 1.0v20  - 6.0v21  - 4.0v23  - 2.0v24  - 2.0v25 + 12.0v26  - 6.0v27 + 1.0v28  - 2.0v29 + 1.0v30 + 4.0v31 + 6.0v32 + 5.0v33  - 7.0v34 + 2.0v35 + 2.0v36  - 5.0v37 + 5.0v39 + 7.0v40  - 2.0v41 + 4.0v42  - 1.0v44 + 1.0v45  - 3.0v46  - 4.0v47 + 14.0v48 + 6.0v49;

v26 + 1 - v3 + 1 - v12 >= 0;
1 - v19 + 1 - v3 + 1 - v9 >= 0;
1 - v49 + 1 - v7 + 1 - v35 >= 0;
1 - v11 + v12 + v47 >= 0;
1 - v35 + 1 - v28 + 1 - v26 >= 0;
v49 + v8 + 1 - v37 >= 0;
1 - v46 + v40 + 1 - v4 >= 0;
v31 + v27 + v15 >= 0;
v32 + v36 + v3 >= 0;
1 - v49 + v33 + 1 - v46 >= 0;
1 - v24 + v17 + 1 - v34 >= 0;
v35 + v44 + v33 >= 0;
v48 + v39 + 1 - v27 >= 0;
v1 + v50 + v35 >= 0;
1 - v14 + v37 + 1 - v1 >= 0;
1 - v13 + v26 + v47 >= 0;
v26 + v5 + v44 >= 0;
1 - v21 + 1 - v18 + v45 >= 0;
v30 + v37 + v8 >= 0;
v20 + v14 + v49 >= 0;
1 - v50 + v16 + 1 - v26 >= 0;
1 - v47 + 1 - v38 + v50 >= 0;
1 - v46 + v17 + v39 >= 0;
v49 + v44 + v11 >= 0;
v18 + 1 - v27 + 1 - v25 >= 0;
1 - v17 + 1 - v47 + v42 >= 0;
1 - v38 + 1 - v40 + 1 - v41 >= 0;
1 - v9 + v26 + v4 >= 0;
1 - v21 + v15 + v12 >= 0;
v41 + v38 + 1 - v47 >= 0;
1 - v42 + v20 + 1 - v39 >= 0;
1 - v37 + 1 - v50 + 1 - v21 >= 0;
v15 + 1 - v46 + 1 - v25 >= 0;
1 - v36 + 1 - v12 + v5 >= 0;
v16 + 1 - v32 + v12 >= 0;
1 - v5 + v38 + 1 - v33 >= 0;
1 - v24 + 1 - v7 + 1 - v44 >= 0;
v44 + v48 + v26 >= 0;
v9 + 1 - v1 + v28 >= 0;
1 - v37 + 1 - v14 + 1 - v1 >= 0;
1 - v12 + v30 + v35 >= 0;
1 - v39 + 1 - v47 + 1 - v12 >= 0;
1 - v13 + v34 + v42 >= 0;
1 - v5 + v10 + v8 >= 0;
v2 + v9 + 1 - v18 >= 0;
1 - v50 + v17 + 1 - v23 >= 0;
v40 + 1 - v50 + 1 - v41 >= 0;
1 - v45 + 1 - v44 + v15 >= 0;
1 - v43 + v36 + 1 - v26 >= 0;
v4 + v20 + v6 >= 0;
1 - v15 + v21 + 1 - v28 >= 0;
v32 + 1 - v44 + v39 >= 0;
v3 + v39 + 1 - v15 >= 0;
v33 + v17 + 1 - v32 >= 0;
v6 + 1 - v20 + 1 - v19 >= 0;
1 - v22 + 1 - v7 + v11 >= 0;
1 - v39 + 1 - v25 + v10 >= 0;
v48 + v50 + v42 >= 0;
1 - v8 + v50 + 1 - v33 >= 0;
v39 + v14 + v19 >= 0;
v48 + 1 - v47 + v17 >= 0;
v23 + 1 - v35 + 1 - v33 >= 0;
v10 + 1 - v30 + 1 - v28 >= 0;
v29 + v46 + 1 - v27 >= 0;
v7 + 1 - v17 + v45 >= 0;
v11 + 1 - v37 + 1 - v23 >= 0;
1 - v42 + 1 - v17 + v24 >= 0;
v39 + v28 + 1 - v37 >= 0;
v39 + v20 + 1 - v7 >= 0;
1 - v13 + 1 - v39 + 1 - v27 >= 0;
v38 + 1 - v16 + 1 - v4 >= 0;
v48 + 1 - v15 + v3 >= 0;
v30 + 1 - v31 + v28 >= 0;
v46 + 1 - v29 + 1 - v21 >= 0;
v35 + v48 + v31 >= 0;
1 - v44 + v13 + v25 >= 0;
1 - v34 + 1 - v17 + 1 - v37 >= 0;
v37 + 1 - v17 + 1 - v10 >= 0;
1 - v15 + 1 - v29 + v28 >= 0;
v28 + 1 - v16 + 1 - v11 >= 0;
1 - v18 + v21 + v48 >= 0;
v15 + 1 - v2 + v33 >= 0;
1 - v30 + 1 - v24 + v36 >= 0;
v38 + 1 - v2 + 1 - v47 >= 0;
1 - v29 + v15 + v44 >= 0;
v24 + 1 - v40 + v42 >= 0;
v38 + 1 - v47 + 1 - v11 >= 0;
1 - v40 + v27 + v22 >= 0;
1 - v44 + v4 + 1 - v11 >= 0;
v19 + 1 - v48 + 1 - v12 >= 0;
v33 + 1 - v10 + v24 >= 0;
1 - v34 + 1 - v20 + v3 >= 0;
v42 + v29 + 1 - v27 >= 0;
1 - v21 + 1 - v49 + v46 >= 0;
1 - v28 + v8 + 1 - v12 >= 0;
1 - v24 + 1 - v3 + 1 - v8 >= 0;
v4 + v10 + 1 - v9 >= 0;
1 - v7 + v45 + 1 - v27 >= 0;
v26 + v27 + v30 >= 0;
1 - v36 + 1 - v26 + 1 - v48 >= 0;
1 - v49 + v47 + 1 - v3 >= 0;
v50 + 1 - v33 + 1 - v1 >= 0;
1 - v13 + 1 - v30 + v25 >= 0;
1 - v22 + v13 + v36 >= 0;
v28 + 1 - v6 + v29 >= 0;
v20 + 1 - v30 + 1 - v21 >= 0;
1 - v14 + v26 + v15 >= 0;
1 - v45 + 1 - v41 + 1 - v38 >= 0;
v13 + v39 + 1 - v29 >= 0;
v32 + 1 - v15 + 1 - v11 >= 0;
v26 + 1 - v5 + v48 >= 0;
v28 + 1 - v24 + 1 - v27 >= 0;
1 - v5 + v26 + v27 >= 0;
v8 + 1 - v40 + 1 - v49 >= 0;
1 - v44 + v13 + v41 >= 0;
v26 + 1 - v34 + 1 - v29 >= 0;
v36 + v12 + 1 - v1 >= 0;
1 - v1 + v26 + v12 >= 0;
1 - v47 + 1 - v29 + 1 - v2 >= 0;
v26 + 1 - v34 + v13 >= 0;
v40 + 1 - v9 + 1 - v4 >= 0;
1 - v46 + 1 - v19 + v50 >= 0;
v32 + v47 + v43 >= 0;
v6 + 1 - v46 + v7 >= 0;
v26 + 1 - v19 + 1 - v41 >= 0;
1 - v11 + 1 - v43 + 1 - v49 >= 0;
1 - v12 + v30 + v40 >= 0;
1 - v23 + v47 + v14 >= 0;
1 - v37 + 1 - v10 + 1 - v25 >= 0;
v13 + 1 - v1 + 1 - v3 >= 0;
v25 + v32 + 1 - v33 >= 0;
v30 + 1 - v42 + 1 - v17 >= 0;
v44 + v40 + v1 >= 0;
1 - v12 + v13 + 1 - v45 >= 0;
v10 + 1 - v20 + v26 >= 0;
1 - v47 + 1 - v9 + v48 >= 0;
v5 + 1 - v6 + 1 - v2 >= 0;
v9 + 1 - v21 + 1 - v34 >= 0;
v29 + v7 + v49 >= 0;
v48 + 1 - v15 + v26 >= 0;
1 - v39 + v24 + 1 - v20 >= 0;
1 - v46 + 1 - v7 + 1 - v2 >= 0;
v41 + 1 - v36 + 1 - v50 >= 0;
v11 + 1 - v23 + v2 >= 0;
1 - v16 + v43 + 1 - v21 >= 0;
v2 + 1 - v5 + v22 >= 0;
v17 + 1 - v36 + v31 >= 0;
1 - v47 + 1 - v23 + 1 - v45 >= 0;
1 - v41 + v7 + v12 >= 0;
v48 + v31 + v49 >= 0;
1 - v17 + 1 - v23 + v19 >= 0;
1 - v13 + 1 - v10 + 1 - v45 >= 0;
1 - v2 + v25 + 1 - v50 >= 0;
1 - v35 + v11 + v3 >= 0;
v2 + v1 + v49 >= 0;
1 - v15 + v37 + 1 - v44 >= 0;
1 - v43 + 1 - v37 + v47 >= 0;
v13 + 1 - v32 + v49 >= 0;
v8 + v12 + 1 - v30 >= 0;
1 - v28 + v9 + v34 >= 0;
1 - v47 + v24 + v39 >= 0;
1 - v27 + 1 - v50 + 1 - v23 >= 0;
v49 + 1 - v11 + v45 >= 0;
1 - v19 + v49 + 1 - v43 >= 0;
1 - v7 + v14 + v9 >= 0;
v29 + v47 + v50 >= 0;
v45 + 1 - v4 + 1 - v13 >= 0;
v13 + 1 - v38 + 1 - v3 >= 0;
v20 + 1 - v17 + 1 - v38 >= 0;
1 - v38 + 1 - v2 + 1 - v7 >= 0;
v7 + 1 - v14 + 1 - v27 >= 0;
1 - v19 + 1 - v27 + v35 >= 0;
v23 + v7 + v11 >= 0;
v15 + 1 - v34 + v26 >= 0;
v46 + 1 - v34 + v23 >= 0;
v32 + 1 - v36 + v20 >= 0;
v40 + 1 - v11 + v29 >= 0;
v47 + 1 - v15 + 1 - v28 >= 0;
1 - v17 + v4 + v25 >= 0;
1 - v13 + v1 + 1 - v4 >= 0;
v42 + 1 - v34 + v19 >= 0;
1 - v13 + v33 + v22 >= 0;
1 - v13 + v3 + v28 >= 0;
v32 + v27 + v20 >= 0;
1 - v27 + v32 + 1 - v25 >= 0;
1 - v13 + v9 + v11 >= 0;
v43 + v33 + 1 - v36 >= 0;
v28 + 1 - v37 + v45 >= 0;
1 - v22 + v8 + v32 >= 0;
1 - v16 + v40 + 1 - v32 >= 0;
1 - v18 + v33 + 1 - v6 >= 0;
v32 + v7 + 1 - v9 >= 0;
v8 + v49 + 1 - v18 >= 0;
1 - v7 + v26 + v3 >= 0;
v39 + v32 + 1 - v6 >= 0;
v18 + v40 + v8 >= 0;
v50 + v49 + 1 - v29 >= 0;
v40 + 1 - v24 + v48 >= 0;
v2 + v33 + 1 - v27 >= 0;
1 - v20 + 1 - v9 + 1 - v25 >= 0;
v1 + v47 + v36 >= 0;
v31 + 1 - v20 + v2 >= 0;
v8 + v17 + v40 >= 0;
1 - v7 + 1 - v25 + v48 >= 0;
v27 + v48 + 1 - v1 >= 0;
1 - v24 + v2 + 1 - v32 >= 0;
v13 + v43 + v36 >= 0;
1 - v28 + v36 + v42 >= 0;
v40 + v33 + v4 >= 0;
1 - v50 + 1 - v8 + v48 >= 0;
1 - v47 + 1 - v4 + 1 - v6 >= 0;
1 - v13 + v48 + 1 - v20 >= 0;
1 - v1 + 1 - v47 + 1 - v25 >= 0;
v49 + 1 - v19 + 1 - v16 >= 0;
v25 + 1 - v41 + v35 >= 0;
1 - v26 + v38 + v19 >= 0;
1 - v9 + 1 - v29 + v2 >= 0;
v17 + 1 - v28 + v41 >= 0;
0 <= v1 <= 1;
0 <= v2 <= 1;
0 <= v3 <= 1;
0 <= v4 <= 1;
0 <= v5 <= 1;
0 <= v6 <= 1;
0 <= v7 <= 1;
0 <= v8 <= 1;
0 <= v9 <= 1;
0 <= v10 <= 1;
0 <= v11 <= 1;
0 <= v12 <= 1;
0 <= v13 <= 1;
0 <= v14 <= 1;
0 <= v15 <= 1;
0 <= v16 <= 1;
0 <= v17 <= 1;
0 <= v18 <= 1;
0 <= v19 <= 1;
0 <= v20 <= 1;
0 <= v21 <= 1;
0 <= v22 <= 1;
0 <= v23 <= 1;
0 <= v24 <= 1;
0 <= v25 <= 1;
0 <= v26 <= 1;
0 <= v27 <= 1;
0 <= v28 <= 1;
0 <= v29 <= 1;
0 <= v30 <= 1;
0 <= v31 <= 1;
0 <= v32 <= 1;
0 <= v33 <= 1;
0 <= v34 <= 1;
0 <= v35 <= 1;
0 <= v36 <= 1;
0 <= v37 <= 1;
0 <= v38 <= 1;
0 <= v39 <= 1;
0 <= v40 <= 1;
0 <= v41 <= 1;
0 <= v42 <= 1;
0 <= v43 <= 1;
0 <= v44 <= 1;
0 <= v45 <= 1;
0 <= v46 <= 1;
0 <= v47 <= 1;
0 <= v48 <= 1;
0 <= v49 <= 1;
0 <= v50 <= 1;
